c CNF file generated from BLIF2CNF script.
c Original BLIF file was blif/s1.blif
p cnf 239 1180
 -1 0
- -1 0
1 -   0
-1  0
 -2 0
 -2 0
2 - -  0
-2  0
-3 -5 0
5 3  0
-5 4 0
-4 5  0
-6 -8 0
8 6  0
-8 7 0
-7 8  0
-9 -11 0
11 9  0
-11 10 0
-10 11  0
-12 -14 0
14 12  0
-14 13 0
-13 14  0
-15 -17 0
17 15  0
-17 16 0
-16 17  0
-18 -20 0
20 18  0
-20 19 0
-19 20  0
-21 -23 0
23 21  0
-23 22 0
-22 23  0
-24 -26 0
26 24  0
-26 25 0
-25 26  0
-27 -29 0
29 27  0
-29 28 0
-28 29  0
-30 -32 0
32 30  0
-32 31 0
-31 32  0
-33 -35 0
35 33  0
-35 34 0
-34 35  0
36 -45 0
-37 -45 0
38 -45 0
-39 -45 0
-40 -45 0
-41 -45 0
-42 -45 0
-43 -45 0
45 -36 37 -38 39 40 41 42 43  0
-45 44 0
-44 45  0
-36 -49 0
-37 -49 0
-46 -49 0
39 -49 0
47 -49 0
-41 -49 0
-42 -49 0
-43 -49 0
49 36 37 46 -39 -47 41 42 43  0
-49 48 0
-48 49  0
36 -51 0
-37 -51 0
39 -51 0
-47 -51 0
-41 -51 0
-42 -51 0
-43 -51 0
51 -36 37 -39 47 41 42 43  0
-51 50 0
-50 51  0
36 -56 0
37 -56 0
52 -56 0
-46 -56 0
-53 -56 0
-54 -56 0
-41 -56 0
42 -56 0
56 -36 -37 -52 46 53 54 41 -42  0
-56 55 0
-55 56  0
-36 -58 0
37 -58 0
52 -58 0
46 -58 0
-39 -58 0
-41 -58 0
-42 -58 0
-43 -58 0
58 36 -37 -52 -46 39 41 42 43  0
-58 57 0
-57 58  0
36 -60 0
-37 -60 0
-46 -60 0
-53 -60 0
-54 -60 0
-41 -60 0
-43 -60 0
60 -36 37 46 53 54 41 43  0
-60 59 0
-59 60  0
36 -62 0
-38 -62 0
39 -62 0
47 -62 0
54 -62 0
41 -62 0
43 -62 0
62 -36 38 -39 -47 -54 -41 -43  0
-62 61 0
-61 62  0
37 -64 0
-52 -64 0
-46 -64 0
39 -64 0
47 -64 0
-41 -64 0
-42 -64 0
-43 -64 0
64 -37 52 46 -39 -47 41 42 43  0
-64 63 0
-63 64  0
-36 -66 0
-46 -66 0
39 -66 0
47 -66 0
54 -66 0
41 -66 0
-42 -66 0
43 -66 0
66 36 46 -39 -47 -54 -41 42 -43  0
-66 65 0
-65 66  0
37 -68 0
52 -68 0
46 -68 0
-40 -68 0
-54 -68 0
-41 -68 0
42 -68 0
-43 -68 0
68 -37 -52 -46 40 54 41 -42 43  0
-68 67 0
-67 68  0
36 -70 0
-38 -70 0
-47 -70 0
53 -70 0
54 -70 0
41 -70 0
-42 -70 0
43 -70 0
70 -36 38 47 -53 -54 -41 42 -43  0
-70 69 0
-69 70  0
-37 -72 0
46 -72 0
39 -72 0
47 -72 0
-41 -72 0
-42 -72 0
-43 -72 0
72 37 -46 -39 -47 41 42 43  0
-72 71 0
-71 72  0
-36 -74 0
46 -74 0
39 -74 0
47 -74 0
54 -74 0
41 -74 0
-42 -74 0
43 -74 0
74 36 -46 -39 -47 -54 -41 42 -43  0
-74 73 0
-73 74  0
36 -76 0
-38 -76 0
-39 -76 0
53 -76 0
54 -76 0
41 -76 0
-42 -76 0
43 -76 0
76 -36 38 39 -53 -54 -41 42 -43  0
-76 75 0
-75 76  0
36 -78 0
-37 -78 0
-46 -78 0
-41 -78 0
42 -78 0
43 -78 0
78 -36 37 46 41 -42 -43  0
-78 77 0
-77 78  0
-38 -80 0
39 -80 0
47 -80 0
-53 -80 0
-54 -80 0
41 -80 0
80 38 -39 -47 53 54 -41  0
-80 79 0
-79 80  0
37 -82 0
52 -82 0
-46 -82 0
-53 -82 0
-54 -82 0
-41 -82 0
-43 -82 0
82 -37 -52 46 53 54 41 43  0
-82 81 0
-81 82  0
36 -84 0
-37 -84 0
-46 -84 0
53 -84 0
-54 -84 0
41 -84 0
-43 -84 0
84 -36 37 46 -53 54 -41 43  0
-84 83 0
-83 84  0
46 -86 0
40 -86 0
-53 -86 0
-41 -86 0
42 -86 0
-43 -86 0
86 -46 -40 53 41 -42 43  0
-86 85 0
-85 86  0
-36 -88 0
46 -88 0
-39 -88 0
-53 -88 0
54 -88 0
-41 -88 0
43 -88 0
88 36 -46 39 53 -54 41 -43  0
-88 87 0
-87 88  0
-37 -90 0
39 -90 0
47 -90 0
-41 -90 0
-42 -90 0
-43 -90 0
90 37 -39 -47 41 42 43  0
-90 89 0
-89 90  0
-36 -92 0
-46 -92 0
39 -92 0
47 -92 0
-53 -92 0
54 -92 0
-41 -92 0
43 -92 0
92 36 46 -39 -47 53 -54 41 -43  0
-92 91 0
-91 92  0
-37 -94 0
46 -94 0
-39 -94 0
40 -94 0
-41 -94 0
-42 -94 0
-43 -94 0
94 37 -46 39 -40 41 42 43  0
-94 93 0
-93 94  0
-37 -96 0
-38 -96 0
46 -96 0
-39 -96 0
-41 -96 0
-42 -96 0
-43 -96 0
96 37 38 -46 39 41 42 43  0
-96 95 0
-95 96  0
37 -98 0
-52 -98 0
46 -98 0
-39 -98 0
-41 -98 0
-42 -98 0
-43 -98 0
98 -37 52 -46 39 41 42 43  0
-98 97 0
-97 98  0
37 -100 0
-52 -100 0
-46 -100 0
53 -100 0
-54 -100 0
41 -100 0
-43 -100 0
100 -37 52 46 -53 54 -41 43  0
-100 99 0
-99 100  0
36 -102 0
37 -102 0
52 -102 0
-46 -102 0
53 -102 0
-54 -102 0
41 -102 0
102 -36 -37 -52 46 -53 54 -41  0
-102 101 0
-101 102  0
-36 -104 0
46 -104 0
-39 -104 0
54 -104 0
41 -104 0
-42 -104 0
43 -104 0
104 36 -46 39 -54 -41 42 -43  0
-104 103 0
-103 104  0
-36 -106 0
-37 -106 0
46 -106 0
-39 -106 0
-41 -106 0
-42 -106 0
-43 -106 0
106 36 37 -46 39 41 42 43  0
-106 105 0
-105 106  0
-36 -108 0
-37 -108 0
-46 -108 0
53 -108 0
-54 -108 0
41 -108 0
-43 -108 0
108 36 37 46 -53 54 -41 43  0
-108 107 0
-107 108  0
36 -110 0
38 -110 0
-54 -110 0
-41 -110 0
-42 -110 0
43 -110 0
110 -36 -38 54 41 42 -43  0
-110 109 0
-109 110  0
-36 -112 0
46 -112 0
39 -112 0
47 -112 0
-53 -112 0
54 -112 0
-41 -112 0
43 -112 0
112 36 -46 -39 -47 53 -54 41 -43  0
-112 111 0
-111 112  0
-36 -114 0
37 -114 0
52 -114 0
-46 -114 0
53 -114 0
-54 -114 0
41 -114 0
114 36 -37 -52 46 -53 54 -41  0
-114 113 0
-113 114  0
37 -116 0
52 -116 0
-46 -116 0
-41 -116 0
42 -116 0
43 -116 0
116 -37 -52 46 41 -42 -43  0
-116 115 0
-115 116  0
-52 -118 0
40 -118 0
54 -118 0
-42 -118 0
-43 -118 0
118 52 -40 -54 42 43  0
-118 117 0
-117 118  0
36 -120 0
39 -120 0
47 -120 0
-53 -120 0
54 -120 0
-41 -120 0
43 -120 0
120 -36 -39 -47 53 -54 41 -43  0
-120 119 0
-119 120  0
-52 -122 0
46 -122 0
39 -122 0
47 -122 0
-41 -122 0
-42 -122 0
-43 -122 0
122 52 -46 -39 -47 41 42 43  0
-122 121 0
-121 122  0
38 -124 0
-53 -124 0
-54 -124 0
41 -124 0
42 -124 0
124 -38 53 54 -41 -42  0
-124 123 0
-123 124  0
39 -126 0
-47 -126 0
-53 -126 0
54 -126 0
-41 -126 0
43 -126 0
126 -39 47 53 -54 41 -43  0
-126 125 0
-125 126  0
36 -128 0
38 -128 0
53 -128 0
54 -128 0
41 -128 0
-42 -128 0
43 -128 0
128 -36 -38 -53 -54 -41 42 -43  0
-128 127 0
-127 128  0
37 -130 0
52 -130 0
39 -130 0
-41 -130 0
-42 -130 0
-43 -130 0
130 -37 -52 -39 41 42 43  0
-130 129 0
-129 130  0
-46 -132 0
-39 -132 0
-53 -132 0
54 -132 0
-41 -132 0
43 -132 0
132 46 39 53 -54 41 -43  0
-132 131 0
-131 132  0
-52 -134 0
46 -134 0
-41 -134 0
42 -134 0
43 -134 0
134 52 -46 41 -42 -43  0
-134 133 0
-133 134  0
36 -136 0
-47 -136 0
-53 -136 0
54 -136 0
-41 -136 0
43 -136 0
136 -36 47 53 -54 41 -43  0
-136 135 0
-135 136  0
36 -138 0
-46 -138 0
54 -138 0
41 -138 0
42 -138 0
-43 -138 0
138 -36 46 -54 -41 -42 43  0
-138 137 0
-137 138  0
-37 -140 0
46 -140 0
-41 -140 0
42 -140 0
43 -140 0
140 37 -46 41 -42 -43  0
-140 139 0
-139 140  0
46 -142 0
-40 -142 0
53 -142 0
54 -142 0
41 -142 0
42 -142 0
-43 -142 0
142 -46 40 -53 -54 -41 -42 43  0
-142 141 0
-141 142  0
36 -144 0
53 -144 0
-54 -144 0
-41 -144 0
43 -144 0
144 -36 -53 54 41 -43  0
-144 143 0
-143 144  0
37 -146 0
52 -146 0
46 -146 0
-41 -146 0
42 -146 0
43 -146 0
146 -37 -52 -46 41 -42 -43  0
-146 145 0
-145 146  0
36 -148 0
39 -148 0
47 -148 0
-53 -148 0
41 -148 0
43 -148 0
148 -36 -39 -47 53 -41 -43  0
-148 147 0
-147 148  0
46 -150 0
-54 -150 0
-41 -150 0
42 -150 0
150 -46 54 41 -42  0
-150 149 0
-149 150  0
-52 -152 0
46 -152 0
53 -152 0
-54 -152 0
41 -152 0
-43 -152 0
152 52 -46 -53 54 -41 43  0
-152 151 0
-151 152  0
-38 -154 0
-47 -154 0
-54 -154 0
41 -154 0
-42 -154 0
-43 -154 0
154 38 47 54 -41 42 43  0
-154 153 0
-153 154  0
-36 -156 0
-46 -156 0
-54 -156 0
-41 -156 0
-42 -156 0
43 -156 0
156 36 46 54 41 42 -43  0
-156 155 0
-155 156  0
36 -158 0
-54 -158 0
-41 -158 0
-42 -158 0
43 -158 0
158 -36 54 41 42 -43  0
-158 157 0
-157 158  0
-37 -160 0
46 -160 0
53 -160 0
-54 -160 0
41 -160 0
-43 -160 0
160 37 -46 -53 54 -41 43  0
-160 159 0
-159 160  0
-38 -162 0
-39 -162 0
-54 -162 0
41 -162 0
-42 -162 0
-43 -162 0
162 38 39 54 -41 42 43  0
-162 161 0
-161 162  0
-52 -164 0
53 -164 0
54 -164 0
-41 -164 0
-43 -164 0
164 52 -53 -54 41 43  0
-164 163 0
-163 164  0
-46 -166 0
54 -166 0
41 -166 0
42 -166 0
-43 -166 0
166 46 -54 -41 -42 43  0
-166 165 0
-165 166  0
-37 -168 0
53 -168 0
54 -168 0
-41 -168 0
-43 -168 0
168 37 -53 -54 41 43  0
-168 167 0
-167 168  0
-36 -170 0
46 -170 0
-54 -170 0
-41 -170 0
-42 -170 0
43 -170 0
170 36 -46 54 41 42 -43  0
-170 169 0
-169 170  0
37 -172 0
52 -172 0
46 -172 0
53 -172 0
-54 -172 0
41 -172 0
172 -37 -52 -46 -53 54 -41  0
-172 171 0
-171 172  0
-53 -174 0
-54 -174 0
41 -174 0
42 -174 0
174 53 54 -41 -42  0
-174 173 0
-173 174  0
46 -176 0
40 -176 0
54 -176 0
41 -176 0
42 -176 0
-43 -176 0
176 -46 -40 -54 -41 -42 43  0
-176 175 0
-175 176  0
39 -178 0
47 -178 0
41 -178 0
42 -178 0
43 -178 0
178 -39 -47 -41 -42 -43  0
-178 177 0
-177 178  0
37 -180 0
52 -180 0
54 -180 0
-42 -180 0
-43 -180 0
180 -37 -52 -54 42 43  0
-180 179 0
-179 180  0
36 -182 0
-47 -182 0
-53 -182 0
41 -182 0
43 -182 0
182 -36 47 53 -41 -43  0
-182 181 0
-181 182  0
54 -184 0
-42 -184 0
-43 -184 0
184 -54 42 43  0
-184 183 0
-183 184  0
36 -186 0
-39 -186 0
-53 -186 0
41 -186 0
43 -186 0
186 -36 39 53 -41 -43  0
-186 185 0
-185 186  0
36 -188 0
-46 -188 0
-54 -188 0
41 -188 0
43 -188 0
188 -36 46 54 -41 -43  0
-188 187 0
-187 188  0
38 -190 0
-54 -190 0
41 -190 0
-42 -190 0
-43 -190 0
190 -38 54 -41 42 43  0
-190 189 0
-189 190  0
37 -192 0
52 -192 0
53 -192 0
54 -192 0
-41 -192 0
192 -37 -52 -53 -54 41  0
-192 191 0
-191 192  0
36 -194 0
-39 -194 0
-53 -194 0
54 -194 0
-41 -194 0
43 -194 0
194 -36 39 53 -54 41 -43  0
-194 193 0
-193 194  0
-36 -196 0
-46 -196 0
-54 -196 0
41 -196 0
43 -196 0
196 36 46 54 -41 -43  0
-196 195 0
-195 196  0
36 -198 0
37 -198 0
52 -198 0
-41 -198 0
-42 -198 0
-43 -198 0
198 -36 -37 -52 41 42 43  0
-198 197 0
-197 198  0
40 -200 0
53 -200 0
-54 -200 0
-41 -200 0
-43 -200 0
200 -40 -53 54 41 43  0
-200 199 0
-199 200  0
-40 -202 0
53 -202 0
-54 -202 0
-41 -202 0
-43 -202 0
202 40 -53 54 41 43  0
-202 201 0
-201 202  0
46 -204 0
-53 -204 0
54 -204 0
41 -204 0
-43 -204 0
204 -46 53 -54 -41 43  0
-204 203 0
-203 204  0
-47 -206 0
41 -206 0
42 -206 0
43 -206 0
206 47 -41 -42 -43  0
-206 205 0
-205 206  0
-39 -208 0
41 -208 0
42 -208 0
43 -208 0
208 39 -41 -42 -43  0
-208 207 0
-207 208  0
-53 -210 0
54 -210 0
-41 -210 0
-43 -210 0
210 53 -54 41 43  0
-210 209 0
-209 210  0
53 -212 0
54 -212 0
-41 -212 0
43 -212 0
212 -53 -54 41 -43  0
-212 211 0
-211 212  0
46 -214 0
-54 -214 0
41 -214 0
43 -214 0
214 -46 54 -41 -43  0
-214 213 0
-213 214  0
-48 -217 0
-55 -217 0
-57 -217 0
-63 -217 0
-65 -217 0
-67 -217 0
-69 -217 0
-71 -217 0
-73 -217 0
-75 -217 0
-87 -217 0
-91 -217 0
-93 -217 0
-95 -217 0
-97 -217 0
-215 -217 0
-216 -217 0
- -217 0
- -217 0
- -217 0
- -217 0
- -217 0
- -217 0
- -217 0
- -217 0
- -217 0
- -217 0
- -217 0
- -217 0
- -217 0
- -217 0
- -217 0
- -217 0
- -217 0
- -217 0
- -217 0
- -217 0
- -217 0
- -217 0
- -217 0
- -217 0
- -217 0
- -217 0
- -217 0
217 48 55 57 63 65 67 69 71 73 75 87 91 93 95 97 215 216                             0
-217 216 0
-216 217  0
-67 -221 0
-69 -221 0
-71 -221 0
-73 -221 0
-75 -221 0
-81 -221 0
-93 -221 0
-95 -221 0
-97 -221 0
-101 -221 0
-103 -221 0
-105 -221 0
-111 -221 0
-115 -221 0
-218 -221 0
-219 -221 0
-220 -221 0
- -221 0
- -221 0
- -221 0
- -221 0
- -221 0
- -221 0
- -221 0
- -221 0
- -221 0
- -221 0
- -221 0
- -221 0
- -221 0
- -221 0
- -221 0
- -221 0
- -221 0
- -221 0
- -221 0
- -221 0
- -221 0
- -221 0
- -221 0
- -221 0
- -221 0
- -221 0
- -221 0
- -221 0
221 67 69 71 73 75 81 93 95 97 101 103 105 111 115 218 219 220                              0
-221 220 0
-220 221  0
-44 -223 0
-48 -223 0
-50 -223 0
-55 -223 0
-59 -223 0
-63 -223 0
-65 -223 0
-67 -223 0
-69 -223 0
-75 -223 0
-77 -223 0
-83 -223 0
-91 -223 0
-93 -223 0
-95 -223 0
-97 -223 0
-215 -223 0
-222 -223 0
- -223 0
- -223 0
- -223 0
- -223 0
- -223 0
- -223 0
- -223 0
- -223 0
- -223 0
- -223 0
- -223 0
- -223 0
- -223 0
- -223 0
- -223 0
- -223 0
- -223 0
- -223 0
- -223 0
- -223 0
- -223 0
- -223 0
- -223 0
- -223 0
- -223 0
- -223 0
223 44 48 50 55 59 63 65 67 69 75 77 83 91 93 95 97 215 222                            0
-223 222 0
-222 223  0
-55 -226 0
-57 -226 0
-63 -226 0
-65 -226 0
-73 -226 0
-83 -226 0
-87 -226 0
-89 -226 0
-99 -226 0
-101 -226 0
-107 -226 0
-119 -226 0
-121 -226 0
-135 -226 0
-137 -226 0
-224 -226 0
-225 -226 0
- -226 0
- -226 0
- -226 0
- -226 0
- -226 0
- -226 0
- -226 0
- -226 0
- -226 0
- -226 0
- -226 0
- -226 0
- -226 0
- -226 0
- -226 0
- -226 0
226 55 57 63 65 73 83 87 89 99 101 107 119 121 135 137 224 225                  0
-226 225 0
-225 226  0
-61 -229 0
-69 -229 0
-75 -229 0
-79 -229 0
-81 -229 0
-85 -229 0
-91 -229 0
-111 -229 0
-113 -229 0
-115 -229 0
-117 -229 0
-125 -229 0
-127 -229 0
-129 -229 0
-227 -229 0
-228 -229 0
- -229 0
- -229 0
- -229 0
- -229 0
- -229 0
- -229 0
- -229 0
- -229 0
- -229 0
- -229 0
- -229 0
- -229 0
- -229 0
- -229 0
- -229 0
- -229 0
- -229 0
- -229 0
- -229 0
- -229 0
- -229 0
229 61 69 75 79 81 85 91 111 113 115 117 125 127 129 227 228                       0
-229 228 0
-228 229  0
-61 -231 0
-69 -231 0
-75 -231 0
-79 -231 0
-127 -231 0
-147 -231 0
-153 -231 0
-157 -231 0
-161 -231 0
-173 -231 0
-177 -231 0
-181 -231 0
-185 -231 0
-189 -231 0
-230 -231 0
- -231 0
- -231 0
231 61 69 75 79 127 147 153 157 161 173 177 181 185 189 230    0
-231 230 0
-230 231  0
-44 -232 0
-50 -232 0
-55 -232 0
-59 -232 0
-77 -232 0
-83 -232 0
-101 -232 0
-119 -232 0
-135 -232 0
-137 -232 0
-187 -232 0
-193 -232 0
-197 -232 0
232 44 50 55 59 77 83 101 119 135 137 187 193 197  0
-232 6 0
-6 232  0
-57 -235 0
-67 -235 0
-81 -235 0
-87 -235 0
-91 -235 0
-101 -235 0
-109 -235 0
-111 -235 0
-113 -235 0
-115 -235 0
-119 -235 0
-123 -235 0
-125 -235 0
-127 -235 0
-233 -235 0
-234 -235 0
- -235 0
- -235 0
- -235 0
- -235 0
- -235 0
- -235 0
- -235 0
- -235 0
- -235 0
- -235 0
- -235 0
- -235 0
- -235 0
- -235 0
- -235 0
- -235 0
- -235 0
- -235 0
- -235 0
- -235 0
- -235 0
- -235 0
- -235 0
- -235 0
- -235 0
235 57 67 81 87 91 101 109 111 113 115 119 123 125 127 233 234                           0
-235 234 0
-234 235  0
-141 -236 0
-149 -236 0
-163 -236 0
-167 -236 0
-175 -236 0
-183 -236 0
-191 -236 0
-199 -236 0
-201 -236 0
-203 -236 0
-211 -236 0
236 141 149 163 167 175 183 191 199 201 203 211  0
-236 12 0
-12 236  0
-57 -238 0
-71 -238 0
-73 -238 0
-87 -238 0
-93 -238 0
-95 -238 0
-97 -238 0
-103 -238 0
-105 -238 0
-111 -238 0
-121 -238 0
-151 -238 0
-159 -238 0
-169 -238 0
-237 -238 0
- -238 0
238 57 71 73 87 93 95 97 103 105 111 121 151 159 169 237   0
-238 237 0
-237 238  0
-61 -239 0
-63 -239 0
-65 -239 0
-73 -239 0
-79 -239 0
-83 -239 0
-85 -239 0
-89 -239 0
-91 -239 0
-99 -239 0
-101 -239 0
-107 -239 0
-111 -239 0
-113 -239 0
-117 -239 0
-218 -239 0
-219 -239 0
- -239 0
- -239 0
- -239 0
- -239 0
- -239 0
- -239 0
- -239 0
- -239 0
- -239 0
- -239 0
- -239 0
- -239 0
- -239 0
- -239 0
- -239 0
- -239 0
- -239 0
- -239 0
- -239 0
- -239 0
- -239 0
- -239 0
- -239 0
239 61 63 65 73 79 83 85 89 91 99 101 107 111 113 117 218 219                         0
-239 219 0
-219 239  0
